%%% static parameters %%%
timespan = 1;
Clients_N = [500];
Demand_W = [20];
Lt0 = [4];
Lt1 = [4];
SS_ = [0.85];
DS_D = [6];
K = [200];
MA = [500];
HC = [0.05];
%%% dynamic parameters %%%
lost_ratio_sales_ret_th = 0.0003789869797034304;
lost_ratio_sales_ret_w = 57;
lost_ratio_sales_dis_th = 0.0008395347525641584;
lost_ratio_sales_dis_w = 50;
lost_ratio_sales_fac_th = 0.0006737337255706142;
lost_ratio_sales_fac_w = 8;
stock_customer_MA_mean_relative_th = 0.5265279835580405;
stock_customer_MA_mean_relative_w = 20;
stock_distributor_MA_mean_relative_th = 0.6261887050527287;
stock_distributor_MA_mean_relative_w = 37;
stock_retailer_MA_mean_relative_th = 0.05658978459177311;
stock_retailer_MA_mean_relative_w = 44;
stock_factory_MA_mean_relative_th = 0.7175176845040787;
stock_factory_MA_mean_relative_w = 37;
